data;
set K:= K1 K2 K3 K4 K5 K6 K7 ;

set F:= F1 F2 ;

set Q:= Q1 Q2 ;

param T:= 45;
param V: 
	K1  K2  K3  K4  K5  K6  K7  :=
Q1	1   1   1   1   0   0   0   
Q2	0   0   0   0   1   1   1   
; # if resorce k is of type q

param TF:= 
K1 6
K2 6
K3 6
K4 6
K5 12
K6 12
K7 12
; # number of continuous time slots resource can fly

param TR:= 
K1 2
K2 2
K3 2
K4 2
K5 4
K6 4
K7 4
; #  number of continuous time slots resource k needs to rest between flights

param P:= 
K1 36
K2 36
K3 36
K4 36
K5 36
K6 36
K7 36
; #  number of continuous time slots a pilot can be present including rest times for resource k 

param N:= 
K1 4
K2 4
K3 4
K4 4
K5 2
K6 2
K7 2
; # max number of flights resource k can fly in the total time period

param A: 
	K1  K2  K3  K4  K5  K6  K7  :=
1	1   1   1   1   1   1   1   
2	1   1   1   1   1   1   1   
3	1   1   1   1   1   1   1   
4	1   1   1   1   1   1   1   
5	1   1   1   1   1   1   1   
6	1   1   1   1   1   1   1   
7	1   1   1   1   1   1   1   
8	1   1   1   1   1   1   1   
9	1   1   1   1   1   1   1   
10	1   1   1   1   1   1   1   
11	1   1   1   1   1   1   1   
12	1   1   1   1   1   1   1   
13	1   1   1   1   1   1   1   
14	1   1   1   1   1   1   1   
15	1   1   1   1   1   1   1   
16	1   1   1   1   1   1   1   
17	1   1   1   1   1   1   1   
18	1   1   1   1   1   1   1   
19	1   1   1   1   1   1   1   
20	1   1   1   1   1   1   1   
21	1   1   1   1   1   1   1   
22	1   1   1   1   1   1   1   
23	1   1   1   1   1   1   1   
24	1   1   1   1   1   1   1   
25	1   1   1   1   1   1   1   
26	1   1   1   1   1   1   1   
27	1   1   1   1   1   1   1   
28	1   1   1   1   1   1   1   
29	1   1   1   1   1   1   1   
30	1   1   1   1   1   1   1   
31	1   1   1   1   1   1   1   
32	1   1   1   1   1   1   1   
33	1   1   1   1   1   1   1   
34	1   1   1   1   1   1   1   
35	1   1   1   1   1   1   1   
36	1   1   1   1   1   1   1   
37	1   1   1   1   1   1   1   
38	1   1   1   1   1   1   1   
39	1   1   1   1   1   1   1   
40	1   1   1   1   1   1   1   
41	1   1   1   1   1   1   1   
42	1   1   1   1   1   1   1   
43	1   1   1   1   1   1   1   
44	1   1   1   1   1   1   1   
45	1   1   1   1   1   1   1   
; # availability of resorce k in time slot t

param B: 
	F1  F2  :=
Q1	0   1   
Q2	0   0   
; # if front f requires resources of type q

param U: 
	F1  F2  :=
K1	0   0   
K2	0   0   
K3	0   0   
K4	0   0   
K5	1   1   
K6	1   1   
K7	1   1   
; # transit time of resource

param C:= 
K1 900
K2 900
K3 1500
K4 4500
K5 5500
K6 5500
K7 5500
; #  water capacity of resource k

param S:= 
F1 10
F2 9
; # max number of resources that can fly at front f in the same time slot

param D:= 

[*,*,F1 ]:  K1    K2    K3    K4    K5    K6    K7    :=
1           1.94  1.94  1.94  1.54  1.16  1.16  1.16  
2           1.94  1.94  1.94  1.54  1.16  1.16  1.16  
3           1.94  1.94  1.94  1.54  1.16  1.16  1.16  
4           1.94  1.94  1.94  1.54  1.16  1.16  1.16  
5           1.94  1.94  1.94  1.54  1.16  1.16  1.16  
6           1.94  1.94  1.94  1.54  1.16  1.16  1.16  
7           1.94  1.94  1.94  1.54  1.16  1.16  1.16  
8           1.94  1.94  1.94  1.54  1.16  1.16  1.16  
9           1.94  1.94  1.94  1.54  1.16  1.16  1.16  
10          1.94  1.94  1.94  1.54  1.16  1.16  1.16  
11          1.94  1.94  1.94  1.54  1.16  1.16  1.16  
12          1.94  1.94  1.94  1.54  1.16  1.16  1.16  
13          1.94  1.94  1.94  1.54  1.16  1.16  1.16  
14          1.94  1.94  1.94  1.54  1.16  1.16  1.16  
15          1.94  1.94  1.94  1.54  1.16  1.16  1.16  
16          1.94  1.94  1.94  1.54  1.16  1.16  1.16  
17          1.94  1.94  1.94  1.54  1.16  1.16  1.16  
18          1.94  1.94  1.94  1.54  1.16  1.16  1.16  
19          1.94  1.94  1.94  1.54  1.16  1.16  1.16  
20          1.94  1.94  1.94  1.54  1.16  1.16  1.16  
21          1.94  1.94  1.94  1.54  1.16  1.16  1.16  
22          1.94  1.94  1.94  1.54  1.16  1.16  1.16  
23          1.94  1.94  1.94  1.54  1.16  1.16  1.16  
24          1.94  1.94  1.94  1.54  1.16  1.16  1.16  
25          1.84  1.84  1.84  1.47  1.10  1.10  1.10  
26          1.84  1.84  1.84  1.47  1.10  1.10  1.10  
27          1.84  1.84  1.84  1.47  1.10  1.10  1.10  
28          1.84  1.84  1.84  1.47  1.10  1.10  1.10  
29          1.84  1.84  1.84  1.47  1.10  1.10  1.10  
30          1.84  1.84  1.84  1.47  1.10  1.10  1.10  
31          1.84  1.84  1.84  1.47  1.10  1.10  1.10  
32          1.84  1.84  1.84  1.47  1.10  1.10  1.10  
33          1.84  1.84  1.84  1.47  1.10  1.10  1.10  
34          1.94  1.94  1.94  1.54  1.16  1.16  1.16  
35          1.94  1.94  1.94  1.54  1.16  1.16  1.16  
36          1.94  1.94  1.94  1.54  1.16  1.16  1.16  
37          1.94  1.94  1.94  1.54  1.16  1.16  1.16  
38          1.94  1.94  1.94  1.54  1.16  1.16  1.16  
39          1.94  1.94  1.94  1.54  1.16  1.16  1.16  
40          1.94  1.94  1.94  1.54  1.16  1.16  1.16  
41          1.94  1.94  1.94  1.54  1.16  1.16  1.16  
42          1.94  1.94  1.94  1.54  1.16  1.16  1.16  
43          1.94  1.94  1.94  1.54  1.16  1.16  1.16  
44          1.94  1.94  1.94  1.54  1.16  1.16  1.16  
45          1.94  1.94  1.94  1.54  1.16  1.16  1.16  

[*,*,F2 ]:  K1    K2    K3    K4    K5    K6    K7    :=
1           1.90  1.90  1.90  1.52  1.14  1.14  1.14  
2           1.90  1.90  1.90  1.52  1.14  1.14  1.14  
3           1.90  1.90  1.90  1.52  1.14  1.14  1.14  
4           1.90  1.90  1.90  1.52  1.14  1.14  1.14  
5           1.90  1.90  1.90  1.52  1.14  1.14  1.14  
6           1.90  1.90  1.90  1.52  1.14  1.14  1.14  
7           1.90  1.90  1.90  1.52  1.14  1.14  1.14  
8           1.90  1.90  1.90  1.52  1.14  1.14  1.14  
9           1.90  1.90  1.90  1.52  1.14  1.14  1.14  
10          1.90  1.90  1.90  1.52  1.14  1.14  1.14  
11          1.90  1.90  1.90  1.52  1.14  1.14  1.14  
12          1.90  1.90  1.90  1.52  1.14  1.14  1.14  
13          1.90  1.90  1.90  1.52  1.14  1.14  1.14  
14          1.90  1.90  1.90  1.52  1.14  1.14  1.14  
15          1.90  1.90  1.90  1.52  1.14  1.14  1.14  
16          1.90  1.90  1.90  1.52  1.14  1.14  1.14  
17          1.90  1.90  1.90  1.52  1.14  1.14  1.14  
18          1.90  1.90  1.90  1.52  1.14  1.14  1.14  
19          1.90  1.90  1.90  1.52  1.14  1.14  1.14  
20          1.90  1.90  1.90  1.52  1.14  1.14  1.14  
21          1.90  1.90  1.90  1.52  1.14  1.14  1.14  
22          1.90  1.90  1.90  1.52  1.14  1.14  1.14  
23          1.90  1.90  1.90  1.52  1.14  1.14  1.14  
24          1.90  1.90  1.90  1.52  1.14  1.14  1.14  
25          1.81  1.81  1.81  1.44  1.08  1.08  1.08  
26          1.81  1.81  1.81  1.44  1.08  1.08  1.08  
27          1.81  1.81  1.81  1.44  1.08  1.08  1.08  
28          1.81  1.81  1.81  1.44  1.08  1.08  1.08  
29          1.81  1.81  1.81  1.44  1.08  1.08  1.08  
30          1.81  1.81  1.81  1.44  1.08  1.08  1.08  
31          1.81  1.81  1.81  1.44  1.08  1.08  1.08  
32          1.81  1.81  1.81  1.44  1.08  1.08  1.08  
33          1.81  1.81  1.81  1.44  1.08  1.08  1.08  
34          1.90  1.90  1.90  1.52  1.14  1.14  1.14  
35          1.90  1.90  1.90  1.52  1.14  1.14  1.14  
36          1.90  1.90  1.90  1.52  1.14  1.14  1.14  
37          1.90  1.90  1.90  1.52  1.14  1.14  1.14  
38          1.90  1.90  1.90  1.52  1.14  1.14  1.14  
39          1.90  1.90  1.90  1.52  1.14  1.14  1.14  
40          1.90  1.90  1.90  1.52  1.14  1.14  1.14  
41          1.90  1.90  1.90  1.52  1.14  1.14  1.14  
42          1.90  1.90  1.90  1.52  1.14  1.14  1.14  
43          1.90  1.90  1.90  1.52  1.14  1.14  1.14  
44          1.90  1.90  1.90  1.52  1.14  1.14  1.14  
45          1.90  1.90  1.90  1.52  1.14  1.14  1.14  
; # downloads resource k can do at front f in time t if intermediate time slot

param E:= 

[*,*,F1 ]:  K1    K2    K3    K4    K5    K6    K7    :=
1           0.23  0.62  0.77  0.03  0.35  0.15  0.14  
2           0.23  0.62  0.77  0.03  0.35  0.15  0.14  
3           0.23  0.62  0.77  0.03  0.35  0.15  0.14  
4           0.23  0.62  0.77  0.03  0.35  0.15  0.14  
5           0.23  0.62  0.77  0.03  0.35  0.15  0.14  
6           0.23  0.62  0.77  0.03  0.35  0.15  0.14  
7           0.23  0.62  0.77  0.03  0.35  0.15  0.14  
8           0.23  0.62  0.77  0.03  0.35  0.15  0.14  
9           0.23  0.62  0.77  0.03  0.35  0.15  0.14  
10          0.23  0.62  0.77  0.03  0.35  0.15  0.14  
11          0.23  0.62  0.77  0.03  0.35  0.15  0.14  
12          0.23  0.62  0.77  0.03  0.35  0.15  0.14  
13          0.23  0.62  0.77  0.03  0.35  0.15  0.14  
14          0.23  0.62  0.77  0.03  0.35  0.15  0.14  
15          0.23  0.62  0.77  0.03  0.35  0.15  0.14  
16          0.23  0.62  0.77  0.03  0.35  0.15  0.14  
17          0.23  0.62  0.77  0.03  0.35  0.15  0.14  
18          0.23  0.62  0.77  0.03  0.35  0.15  0.14  
19          0.23  0.62  0.77  0.03  0.35  0.15  0.14  
20          0.23  0.62  0.77  0.03  0.35  0.15  0.14  
21          0.23  0.62  0.77  0.03  0.35  0.15  0.14  
22          0.23  0.62  0.77  0.03  0.35  0.15  0.14  
23          0.23  0.62  0.77  0.03  0.35  0.15  0.14  
24          0.23  0.62  0.77  0.03  0.35  0.15  0.14  
25          0.22  0.59  0.74  0.03  0.33  0.14  0.13  
26          0.22  0.59  0.74  0.03  0.33  0.14  0.13  
27          0.22  0.59  0.74  0.03  0.33  0.14  0.13  
28          0.22  0.59  0.74  0.03  0.33  0.14  0.13  
29          0.22  0.59  0.74  0.03  0.33  0.14  0.13  
30          0.22  0.59  0.74  0.03  0.33  0.14  0.13  
31          0.22  0.59  0.74  0.03  0.33  0.14  0.13  
32          0.22  0.59  0.74  0.03  0.33  0.14  0.13  
33          0.22  0.59  0.74  0.03  0.33  0.14  0.13  
34          0.23  0.62  0.77  0.03  0.35  0.15  0.14  
35          0.23  0.62  0.77  0.03  0.35  0.15  0.14  
36          0.23  0.62  0.77  0.03  0.35  0.15  0.14  
37          0.23  0.62  0.77  0.03  0.35  0.15  0.14  
38          0.23  0.62  0.77  0.03  0.35  0.15  0.14  
39          0.23  0.62  0.77  0.03  0.35  0.15  0.14  
40          0.23  0.62  0.77  0.03  0.35  0.15  0.14  
41          0.23  0.62  0.77  0.03  0.35  0.15  0.14  
42          0.23  0.62  0.77  0.03  0.35  0.15  0.14  
43          0.23  0.62  0.77  0.03  0.35  0.15  0.14  
44          0.23  0.62  0.77  0.03  0.35  0.15  0.14  
45          0.23  0.62  0.77  0.03  0.35  0.15  0.14  

[*,*,F2 ]:  K1    K2    K3    K4    K5    K6    K7    :=
1           0.23  0.65  0.80  0.05  0.32  0.23  0.07  
2           0.23  0.65  0.80  0.05  0.32  0.23  0.07  
3           0.23  0.65  0.80  0.05  0.32  0.23  0.07  
4           0.23  0.65  0.80  0.05  0.32  0.23  0.07  
5           0.23  0.65  0.80  0.05  0.32  0.23  0.07  
6           0.23  0.65  0.80  0.05  0.32  0.23  0.07  
7           0.23  0.65  0.80  0.05  0.32  0.23  0.07  
8           0.23  0.65  0.80  0.05  0.32  0.23  0.07  
9           0.23  0.65  0.80  0.05  0.32  0.23  0.07  
10          0.23  0.65  0.80  0.05  0.32  0.23  0.07  
11          0.23  0.65  0.80  0.05  0.32  0.23  0.07  
12          0.23  0.65  0.80  0.05  0.32  0.23  0.07  
13          0.23  0.65  0.80  0.05  0.32  0.23  0.07  
14          0.23  0.65  0.80  0.05  0.32  0.23  0.07  
15          0.23  0.65  0.80  0.05  0.32  0.23  0.07  
16          0.23  0.65  0.80  0.05  0.32  0.23  0.07  
17          0.23  0.65  0.80  0.05  0.32  0.23  0.07  
18          0.23  0.65  0.80  0.05  0.32  0.23  0.07  
19          0.23  0.65  0.80  0.05  0.32  0.23  0.07  
20          0.23  0.65  0.80  0.05  0.32  0.23  0.07  
21          0.23  0.65  0.80  0.05  0.32  0.23  0.07  
22          0.23  0.65  0.80  0.05  0.32  0.23  0.07  
23          0.23  0.65  0.80  0.05  0.32  0.23  0.07  
24          0.23  0.65  0.80  0.05  0.32  0.23  0.07  
25          0.22  0.61  0.76  0.04  0.30  0.22  0.06  
26          0.22  0.61  0.76  0.04  0.30  0.22  0.06  
27          0.22  0.61  0.76  0.04  0.30  0.22  0.06  
28          0.22  0.61  0.76  0.04  0.30  0.22  0.06  
29          0.22  0.61  0.76  0.04  0.30  0.22  0.06  
30          0.22  0.61  0.76  0.04  0.30  0.22  0.06  
31          0.22  0.61  0.76  0.04  0.30  0.22  0.06  
32          0.22  0.61  0.76  0.04  0.30  0.22  0.06  
33          0.22  0.61  0.76  0.04  0.30  0.22  0.06  
34          0.23  0.65  0.80  0.05  0.32  0.23  0.07  
35          0.23  0.65  0.80  0.05  0.32  0.23  0.07  
36          0.23  0.65  0.80  0.05  0.32  0.23  0.07  
37          0.23  0.65  0.80  0.05  0.32  0.23  0.07  
38          0.23  0.65  0.80  0.05  0.32  0.23  0.07  
39          0.23  0.65  0.80  0.05  0.32  0.23  0.07  
40          0.23  0.65  0.80  0.05  0.32  0.23  0.07  
41          0.23  0.65  0.80  0.05  0.32  0.23  0.07  
42          0.23  0.65  0.80  0.05  0.32  0.23  0.07  
43          0.23  0.65  0.80  0.05  0.32  0.23  0.07  
44          0.23  0.65  0.80  0.05  0.32  0.23  0.07  
45          0.23  0.65  0.80  0.05  0.32  0.23  0.07  
; # downloads resource k can do at front f in time t if starting or ending flight

param W: 
	F1        F2        :=
1	690.59    371.86    
2	2762.36   1487.43   
3	2762.36   1487.43   
4	2762.36   1487.43   
5	2762.36   1487.43   
6	2762.36   1487.43   
7	2762.36   1487.43   
8	2762.36   1487.43   
9	2762.36   1487.43   
10	2762.36   1487.43   
11	2762.36   1487.43   
12	2762.36   1487.43   
13	2762.36   1487.43   
14	2762.36   1487.43   
15	2762.36   1487.43   
16	2762.36   1487.43   
17	2762.36   1487.43   
18	2762.36   1487.43   
19	1227.72   661.08    
20	1227.72   661.08    
21	1227.72   661.08    
22	1227.72   661.08    
23	1227.72   661.08    
24	1227.72   661.08    
25	1227.72   661.08    
26	1227.72   661.08    
27	1227.72   661.08    
28	1227.72   661.08    
29	1227.72   661.08    
30	1227.72   661.08    
31	1227.72   661.08    
32	1227.72   661.08    
33	1227.72   661.08    
34	1227.72   661.08    
35	1227.72   661.08    
36	1227.72   661.08    
37	1227.72   661.08    
38	1227.72   661.08    
39	1227.72   661.08    
40	1227.72   661.08    
41	1227.72   661.08    
42	1227.72   661.08    
43	1227.72   661.08    
44	1227.72   661.08    
45	306.93    165.27    
; # water needed at front f in time slot t

param M := 100000000; 

param a1:= 10000000;

param a2:= 100;

param a3:= 0.0001;
